proyfinal/src/viki/013/andrea/andrea-localstore/experimentInOfficeAgust.take6/worker_10/4796726f-c3a9-4cca-85ba-1e345eb44647.als.cnf.out
Reading from standard input... Use '--help' for help.
============================[ Problem Statistics ]=============================
|                                                                             |
|  Number of variables:         87638                                         |
|  Number of clauses:          161767                                         |
|  Parse time:                   0.04 s                                       |
|                                                                             |
============================[ Search Statistics ]==============================
| Conflicts |          ORIGINAL         |          LEARNT          | Progress |
|           |    Vars  Clauses Literals |    Limit  Clauses Lit/Cl |          |
===============================================================================
|       100 |   63764   110209   275394 |    40409      100     11 | 27.242 % |
|       250 |   53890   110165   275304 |    44450      248     31 | 38.508 % |
|       475 |   53890   110165   275304 |    48896      473     32 | 38.508 % |
|       812 |   53887    81216   204092 |    53785      808     47 | 38.512 % |
|      1318 |   53638    81131   203887 |    59164     1308     49 | 38.796 % |
|      2077 |   53602    80183   201532 |    65080     2063     53 | 38.837 % |
|      3216 |   53490    80045   201211 |    71588     3198     51 | 38.965 % |
|      4924 |   53490    79651   200235 |    78747     4903     51 | 38.965 % |
|      7486 |   53344    79378   199597 |    86622     7458     53 | 39.131 % |
|     11330 |   53210    78678   197868 |    95284    11240     64 | 39.284 % |
|     17096 |   52962    78338   197103 |   104813    15433     69 | 39.567 % |
===============================================================================
restarts              : 63
conflicts             : 17943          (6920 /sec)
decisions             : 66107          (0.00 % random) (25494 /sec)
propagations          : 27714412       (10687942 /sec)
conflict literals     : 1166678        (43.19 % deleted)
Memory used           : 27.89 MB
CPU time              : 2.59305 s

INDETERMINATE
